c Modular CNF with 2 modules
c Generated CNF instance
p cnf 20 320
8 5 3 0
8 5 -3 0
8 -5 3 0
-8 5 3 0
10 1 7 0
10 1 -7 0
10 -1 7 0
-10 1 7 0
1 7 4 0
1 7 -4 0
1 -7 4 0
-1 7 4 0
5 1 6 0
5 1 -6 0
5 -1 6 0
-5 1 6 0
2 8 6 0
2 8 -6 0
2 -8 6 0
-2 8 6 0
2 4 5 0
2 4 -5 0
2 -4 5 0
-2 4 5 0
5 3 7 0
5 3 -7 0
5 -3 7 0
-5 3 7 0
6 10 4 0
6 10 -4 0
6 -10 4 0
-6 10 4 0
2 3 7 0
2 3 -7 0
2 -3 7 0
-2 3 7 0
2 7 10 0
2 7 -10 0
2 -7 10 0
-2 7 10 0
7 8 3 0
7 8 -3 0
7 -8 3 0
-7 8 3 0
2 5 6 0
2 5 -6 0
2 -5 6 0
-2 5 6 0
5 4 1 0
5 4 -1 0
5 -4 1 0
-5 4 1 0
5 9 6 0
5 9 -6 0
5 -9 6 0
-5 9 6 0
8 10 2 0
8 10 -2 0
8 -10 2 0
-8 10 2 0
6 5 9 0
6 5 -9 0
6 -5 9 0
-6 5 9 0
7 8 9 0
7 8 -9 0
7 -8 9 0
-7 8 9 0
7 2 5 0
7 2 -5 0
7 -2 5 0
-7 2 5 0
5 3 6 0
5 3 -6 0
5 -3 6 0
-5 3 6 0
5 3 6 0
5 3 -6 0
5 -3 6 0
-5 3 6 0
1 4 7 0
1 4 -7 0
1 -4 7 0
-1 4 7 0
3 7 2 0
3 7 -2 0
3 -7 2 0
-3 7 2 0
3 9 6 0
3 9 -6 0
3 -9 6 0
-3 9 6 0
5 2 10 0
5 2 -10 0
5 -2 10 0
-5 2 10 0
4 10 6 0
4 10 -6 0
4 -10 6 0
-4 10 6 0
5 2 10 0
5 2 -10 0
5 -2 10 0
-5 2 10 0
1 4 9 0
1 4 -9 0
1 -4 9 0
-1 4 9 0
7 8 3 0
7 8 -3 0
7 -8 3 0
-7 8 3 0
6 7 1 0
6 7 -1 0
6 -7 1 0
-6 7 1 0
2 5 4 0
2 5 -4 0
2 -5 4 0
-2 5 4 0
2 5 7 0
2 5 -7 0
2 -5 7 0
-2 5 7 0
5 9 4 0
5 9 -4 0
5 -9 4 0
-5 9 4 0
2 1 4 0
2 1 -4 0
2 -1 4 0
-2 1 4 0
7 8 1 0
7 8 -1 0
7 -8 1 0
-7 8 1 0
4 3 1 0
4 3 -1 0
4 -3 1 0
-4 3 1 0
1 7 6 0
1 7 -6 0
1 -7 6 0
-1 7 6 0
1 9 5 0
1 9 -5 0
1 -9 5 0
-1 9 5 0
1 8 9 0
1 8 -9 0
1 -8 9 0
-1 8 9 0
8 3 5 0
8 3 -5 0
8 -3 5 0
-8 3 5 0
5 6 10 0
5 6 -10 0
5 -6 10 0
-5 6 10 0
14 11 12 0
14 11 -12 0
14 -11 12 0
-14 11 12 0
12 16 13 0
12 16 -13 0
12 -16 13 0
-12 16 13 0
18 17 12 0
18 17 -12 0
18 -17 12 0
-18 17 12 0
18 15 11 0
18 15 -11 0
18 -15 11 0
-18 15 11 0
18 13 11 0
18 13 -11 0
18 -13 11 0
-18 13 11 0
18 13 12 0
18 13 -12 0
18 -13 12 0
-18 13 12 0
18 16 19 0
18 16 -19 0
18 -16 19 0
-18 16 19 0
19 13 11 0
19 13 -11 0
19 -13 11 0
-19 13 11 0
15 17 13 0
15 17 -13 0
15 -17 13 0
-15 17 13 0
17 13 19 0
17 13 -19 0
17 -13 19 0
-17 13 19 0
15 12 14 0
15 12 -14 0
15 -12 14 0
-15 12 14 0
17 15 13 0
17 15 -13 0
17 -15 13 0
-17 15 13 0
19 20 16 0
19 20 -16 0
19 -20 16 0
-19 20 16 0
20 11 16 0
20 11 -16 0
20 -11 16 0
-20 11 16 0
17 15 19 0
17 15 -19 0
17 -15 19 0
-17 15 19 0
17 16 20 0
17 16 -20 0
17 -16 20 0
-17 16 20 0
11 18 12 0
11 18 -12 0
11 -18 12 0
-11 18 12 0
16 11 18 0
16 11 -18 0
16 -11 18 0
-16 11 18 0
18 15 20 0
18 15 -20 0
18 -15 20 0
-18 15 20 0
13 19 14 0
13 19 -14 0
13 -19 14 0
-13 19 14 0
15 11 18 0
15 11 -18 0
15 -11 18 0
-15 11 18 0
11 15 16 0
11 15 -16 0
11 -15 16 0
-11 15 16 0
14 20 13 0
14 20 -13 0
14 -20 13 0
-14 20 13 0
20 11 12 0
20 11 -12 0
20 -11 12 0
-20 11 12 0
14 13 17 0
14 13 -17 0
14 -13 17 0
-14 13 17 0
18 19 14 0
18 19 -14 0
18 -19 14 0
-18 19 14 0
17 20 19 0
17 20 -19 0
17 -20 19 0
-17 20 19 0
14 17 12 0
14 17 -12 0
14 -17 12 0
-14 17 12 0
16 20 19 0
16 20 -19 0
16 -20 19 0
-16 20 19 0
14 11 17 0
14 11 -17 0
14 -11 17 0
-14 11 17 0
12 16 15 0
12 16 -15 0
12 -16 15 0
-12 16 15 0
12 13 18 0
12 13 -18 0
12 -13 18 0
-12 13 18 0
20 19 13 0
20 19 -13 0
20 -19 13 0
-20 19 13 0
18 12 17 0
18 12 -17 0
18 -12 17 0
-18 12 17 0
13 11 20 0
13 11 -20 0
13 -11 20 0
-13 11 20 0
17 18 14 0
17 18 -14 0
17 -18 14 0
-17 18 14 0
18 16 12 0
18 16 -12 0
18 -16 12 0
-18 16 12 0
13 19 18 0
13 19 -18 0
13 -19 18 0
-13 19 18 0
20 11 15 0
20 11 -15 0
20 -11 15 0
-20 11 15 0
16 14 19 0
16 14 -19 0
16 -14 19 0
-16 14 19 0
